GLPSOL--GLPK LP/MIP Solver 5.0
Parameter(s) specified in the command line:
 --cpxlp --first inputs/new_tr/order/triang9_5_tiers_input.lp -o solutions/new_tr/triang9_5_tiers_input.lp
Reading problem data from 'inputs/new_tr/order/triang9_5_tiers_input.lp'...
inputs/new_tr/order/triang9_5_tiers_input.lp:11415: warning: lower bound of variable 'm_0_0' redefined
inputs/new_tr/order/triang9_5_tiers_input.lp:11415: warning: upper bound of variable 'm_0_0' redefined
10750 rows, 4096 columns, 31432 non-zeros
4096 integer variables, 3438 of which are binary
15465 lines were read
GLPK Integer Optimizer 5.0
10750 rows, 4096 columns, 31432 non-zeros
4096 integer variables, 3438 of which are binary
Preprocessing...
492 hidden packing inequaliti(es) were detected
65 hidden covering inequaliti(es) were detected
1080 constraint coefficient(s) were reduced
6325 rows, 2282 columns, 17314 non-zeros
2282 integer variables, 2237 of which are binary
Scaling...
 A: min|aij| =  1.000e+00  max|aij| =  9.700e+01  ratio =  9.700e+01
GM: min|aij| =  3.883e-01  max|aij| =  2.576e+00  ratio =  6.633e+00
EQ: min|aij| =  1.508e-01  max|aij| =  1.000e+00  ratio =  6.633e+00
2N: min|aij| =  1.250e-01  max|aij| =  1.719e+00  ratio =  1.375e+01
Constructing initial basis...
Size of triangular part is 5785
Solving LP relaxation...
GLPK Simplex Optimizer 5.0
6325 rows, 2282 columns, 17314 non-zeros
      0: obj =   2.580000000e+02 inf =   7.360e+02 (820)
Perturbing LP to avoid stalling [199]...
   2756: obj =   5.301022294e+02 inf =   2.844e-07 (0) 25
Removing LP perturbation [3751]...
*  3751: obj =   3.360000000e+02 inf =   6.439e-14 (0) 9
OPTIMAL LP SOLUTION FOUND
Integer optimization begins...
Long-step dual simplex will be used
+  3751: mip =     not found yet >=              -inf        (1; 0)
+ 12980: mip =     not found yet >=   3.360000000e+02        (6; 0)
+ 24158: mip =     not found yet >=   3.360000000e+02        (8; 0)
+ 36949: mip =     not found yet >=   3.360000000e+02        (29; 2)
+ 49098: mip =     not found yet >=   3.360000000e+02        (32; 2)
+ 58292: mip =     not found yet >=   3.360000000e+02        (34; 3)
+ 70425: mip =     not found yet >=   3.360000000e+02        (52; 4)
+ 81259: mip =     not found yet >=   3.360000000e+02        (63; 4)
+ 91647: mip =     not found yet >=   3.360000000e+02        (80; 5)
Warning: numerical instability (dual simplex, phase II)
Warning: numerical instability (dual simplex, phase II)
Warning: numerical instability (dual simplex, phase II)
Warning: numerical instability (dual simplex, phase II)
Warning: numerical instability (dual simplex, phase II)
Warning: numerical instability (dual simplex, phase II)
Warning: numerical instability (dual simplex, phase II)
Warning: numerical instability (dual simplex, phase II)
Warning: numerical instability (dual simplex, phase II)
Warning: numerical instability (dual simplex, phase II)
Warning: dual simplex failed due to excessive numerical instability
+115631: mip =     not found yet >=   3.360000000e+02        (103; 6)
Time used: 63.4 secs.  Memory used: 10.4 Mb.
+127238: mip =     not found yet >=   3.360000000e+02        (106; 6)
+136491: mip =     not found yet >=   3.360000000e+02        (112; 7)
+146187: mip =     not found yet >=   3.360000000e+02        (124; 10)
+155736: mip =     not found yet >=   3.360000000e+02        (165; 12)
+175523: mip =     not found yet >=   3.360000000e+02        (176; 16)
+196086: mip =     not found yet >=   3.360000000e+02        (177; 17)
+205941: mip =     not found yet >=   3.360000000e+02        (186; 19)
+216400: mip =     not found yet >=   3.360000000e+02        (193; 19)
Time used: 123.5 secs.  Memory used: 11.3 Mb.
+226709: mip =     not found yet >=   3.360000000e+02        (198; 21)
+238140: mip =     not found yet >=   3.360000000e+02        (218; 25)
+242244: >>>>>   4.800000000e+02 >=   3.360000000e+02  30.0% (264; 26)
+251418: mip =   4.800000000e+02 >=   3.360000000e+02  30.0% (262; 51)
+262868: mip =   4.800000000e+02 >=   3.360000000e+02  30.0% (274; 54)
+274265: mip =   4.800000000e+02 >=   3.360000000e+02  30.0% (289; 55)
+284864: mip =   4.800000000e+02 >=   3.360000000e+02  30.0% (297; 56)
+297095: mip =   4.800000000e+02 >=   3.360000000e+02  30.0% (301; 60)
+307342: mip =   4.800000000e+02 >=   3.360000000e+02  30.0% (315; 61)
+316897: mip =   4.800000000e+02 >=   3.360000000e+02  30.0% (342; 62)
+326360: mip =   4.800000000e+02 >=   3.360000000e+02  30.0% (354; 67)
+336671: mip =   4.800000000e+02 >=   3.360000000e+02  30.0% (361; 68)
Time used: 184.4 secs.  Memory used: 13.0 Mb.
+345734: mip =   4.800000000e+02 >=   3.360000000e+02  30.0% (363; 70)
+357895: mip =   4.800000000e+02 >=   3.360000000e+02  30.0% (368; 71)
+367666: mip =   4.800000000e+02 >=   3.360000000e+02  30.0% (377; 73)
+381822: mip =   4.800000000e+02 >=   3.360000000e+02  30.0% (382; 76)
+391970: mip =   4.800000000e+02 >=   3.360000000e+02  30.0% (387; 79)
+404219: mip =   4.800000000e+02 >=   3.360000000e+02  30.0% (393; 81)
+414496: mip =   4.800000000e+02 >=   3.360000000e+02  30.0% (395; 82)
+425751: mip =   4.800000000e+02 >=   3.360000000e+02  30.0% (403; 84)
+437795: mip =   4.800000000e+02 >=   3.360000000e+02  30.0% (406; 85)
+448331: mip =   4.800000000e+02 >=   3.360000000e+02  30.0% (412; 87)
Time used: 244.5 secs.  Memory used: 14.0 Mb.
+460292: mip =   4.800000000e+02 >=   3.360000000e+02  30.0% (418; 88)
+470781: mip =   4.800000000e+02 >=   3.360000000e+02  30.0% (422; 89)
+481451: mip =   4.800000000e+02 >=   3.360000000e+02  30.0% (427; 91)
+491392: mip =   4.800000000e+02 >=   3.360000000e+02  30.0% (429; 94)
+501201: mip =   4.800000000e+02 >=   3.360000000e+02  30.0% (438; 96)
+511663: mip =   4.800000000e+02 >=   3.360000000e+02  30.0% (470; 99)
+522477: mip =   4.800000000e+02 >=   3.360000000e+02  30.0% (482; 105)
+532157: mip =   4.800000000e+02 >=   3.360000000e+02  30.0% (484; 107)
+542251: mip =   4.800000000e+02 >=   3.360000000e+02  30.0% (487; 116)
+551846: mip =   4.800000000e+02 >=   3.360000000e+02  30.0% (490; 119)
Time used: 304.8 secs.  Memory used: 15.3 Mb.
+565977: mip =   4.800000000e+02 >=   3.360000000e+02  30.0% (498; 123)
+575824: mip =   4.800000000e+02 >=   3.360000000e+02  30.0% (505; 131)
+593561: mip =   4.800000000e+02 >=   3.360000000e+02  30.0% (509; 132)
+604456: mip =   4.800000000e+02 >=   3.360000000e+02  30.0% (517; 132)
+614292: mip =   4.800000000e+02 >=   3.360000000e+02  30.0% (520; 134)
+623360: mip =   4.800000000e+02 >=   3.360000000e+02  30.0% (522; 135)
+634576: mip =   4.800000000e+02 >=   3.360000000e+02  30.0% (525; 136)
+646438: mip =   4.800000000e+02 >=   3.360000000e+02  30.0% (533; 140)
+656178: mip =   4.800000000e+02 >=   3.360000000e+02  30.0% (535; 142)
+665179: mip =   4.800000000e+02 >=   3.360000000e+02  30.0% (542; 142)
Time used: 366.3 secs.  Memory used: 16.1 Mb.
+676974: mip =   4.800000000e+02 >=   3.360000000e+02  30.0% (550; 145)
+686817: mip =   4.800000000e+02 >=   3.360000000e+02  30.0% (552; 146)
+696203: mip =   4.800000000e+02 >=   3.360000000e+02  30.0% (572; 148)
+708111: mip =   4.800000000e+02 >=   3.360000000e+02  30.0% (577; 152)
+721076: mip =   4.800000000e+02 >=   3.360000000e+02  30.0% (583; 153)
+731547: mip =   4.800000000e+02 >=   3.360000000e+02  30.0% (590; 157)
+744950: mip =   4.800000000e+02 >=   3.360000000e+02  30.0% (596; 159)
+755381: mip =   4.800000000e+02 >=   3.360000000e+02  30.0% (599; 159)
+766104: mip =   4.800000000e+02 >=   3.360000000e+02  30.0% (609; 161)
+777069: mip =   4.800000000e+02 >=   3.360000000e+02  30.0% (612; 162)
Time used: 427.9 secs.  Memory used: 17.3 Mb.
+787192: mip =   4.800000000e+02 >=   3.360000000e+02  30.0% (616; 163)
+796467: mip =   4.800000000e+02 >=   3.360000000e+02  30.0% (638; 164)
+807440: mip =   4.800000000e+02 >=   3.360000000e+02  30.0% (651; 166)
+818743: mip =   4.800000000e+02 >=   3.360000000e+02  30.0% (660; 168)
+829063: mip =   4.800000000e+02 >=   3.360000000e+02  30.0% (675; 173)
+838534: mip =   4.800000000e+02 >=   3.360000000e+02  30.0% (687; 181)
+849915: mip =   4.800000000e+02 >=   3.360000000e+02  30.0% (703; 189)
+862945: mip =   4.800000000e+02 >=   3.360000000e+02  30.0% (715; 189)
+872598: mip =   4.800000000e+02 >=   3.360000000e+02  30.0% (720; 194)
+883913: mip =   4.800000000e+02 >=   3.360000000e+02  30.0% (727; 199)
Time used: 488.0 secs.  Memory used: 18.7 Mb.
+893528: mip =   4.800000000e+02 >=   3.360000000e+02  30.0% (738; 202)
+906483: mip =   4.800000000e+02 >=   3.360000000e+02  30.0% (793; 208)
+915940: mip =   4.800000000e+02 >=   3.360000000e+02  30.0% (811; 214)
+927548: mip =   4.800000000e+02 >=   3.360000000e+02  30.0% (842; 217)
+937096: mip =   4.800000000e+02 >=   3.360000000e+02  30.0% (848; 220)
+948832: mip =   4.800000000e+02 >=   3.360000000e+02  30.0% (856; 223)
+965521: mip =   4.800000000e+02 >=   3.360000000e+02  30.0% (860; 227)
+975085: mip =   4.800000000e+02 >=   3.360000000e+02  30.0% (865; 228)
+989370: mip =   4.800000000e+02 >=   3.360000000e+02  30.0% (881; 232)
+998208: mip =   4.800000000e+02 >=   3.360000000e+02  30.0% (887; 246)
Time used: 548.0 secs.  Memory used: 20.5 Mb.
+1009767: mip =   4.800000000e+02 >=   3.360000000e+02  30.0% (932; 249)
+1018427: mip =   4.800000000e+02 >=   3.360000000e+02  30.0% (936; 251)
+1028143: mip =   4.800000000e+02 >=   3.360000000e+02  30.0% (950; 252)
+1037861: mip =   4.800000000e+02 >=   3.360000000e+02  30.0% (974; 253)
+1046990: mip =   4.800000000e+02 >=   3.360000000e+02  30.0% (986; 256)
+1056517: mip =   4.800000000e+02 >=   3.360000000e+02  30.0% (986; 264)
+1066664: mip =   4.800000000e+02 >=   3.360000000e+02  30.0% (1016; 269)
+1078333: mip =   4.800000000e+02 >=   3.360000000e+02  30.0% (1072; 270)
+1088270: mip =   4.800000000e+02 >=   3.360000000e+02  30.0% (1076; 272)
+1101195: mip =   4.800000000e+02 >=   3.360000000e+02  30.0% (1112; 273)
Time used: 608.5 secs.  Memory used: 22.4 Mb.
+1110456: mip =   4.800000000e+02 >=   3.360000000e+02  30.0% (1122; 274)
+1119987: mip =   4.800000000e+02 >=   3.360000000e+02  30.0% (1123; 276)
+1128577: mip =   4.800000000e+02 >=   3.360000000e+02  30.0% (1140; 278)
+1138222: mip =   4.800000000e+02 >=   3.360000000e+02  30.0% (1175; 281)
+1149739: mip =   4.800000000e+02 >=   3.360000000e+02  30.0% (1181; 284)
+1162228: mip =   4.800000000e+02 >=   3.360000000e+02  30.0% (1191; 287)
+1172838: mip =   4.800000000e+02 >=   3.360000000e+02  30.0% (1221; 290)
+1185258: mip =   4.800000000e+02 >=   3.360000000e+02  30.0% (1235; 294)
+1199844: mip =   4.800000000e+02 >=   3.360000000e+02  30.0% (1251; 297)
+1210125: mip =   4.800000000e+02 >=   3.360000000e+02  30.0% (1277; 303)
Time used: 668.5 secs.  Memory used: 24.1 Mb.
+1219505: mip =   4.800000000e+02 >=   3.360000000e+02  30.0% (1311; 308)
+1227009: >>>>>   3.970000000e+02 >=   3.360000000e+02  15.4% (1363; 308)
+1237297: mip =   3.970000000e+02 >=   3.360000000e+02  15.4% (936; 1169)
+1251854: mip =   3.970000000e+02 >=   3.360000000e+02  15.4% (950; 1176)
+1261179: mip =   3.970000000e+02 >=   3.360000000e+02  15.4% (954; 1176)
+1273637: mip =   3.970000000e+02 >=   3.360000000e+02  15.4% (976; 1186)
+1283248: mip =   3.970000000e+02 >=   3.360000000e+02  15.4% (982; 1189)
+1296597: mip =   3.970000000e+02 >=   3.360000000e+02  15.4% (994; 1197)
+1306709: mip =   3.970000000e+02 >=   3.360000000e+02  15.4% (1002; 1198)
+1317592: mip =   3.970000000e+02 >=   3.360000000e+02  15.4% (1014; 1205)
+1327543: mip =   3.970000000e+02 >=   3.360000000e+02  15.4% (1037; 1207)
Time used: 728.6 secs.  Memory used: 24.5 Mb.
+1336852: mip =   3.970000000e+02 >=   3.360000000e+02  15.4% (1047; 1215)
+1346741: mip =   3.970000000e+02 >=   3.360000000e+02  15.4% (1053; 1228)
+1355523: mip =   3.970000000e+02 >=   3.360000000e+02  15.4% (1060; 1228)
+1364734: mip =   3.970000000e+02 >=   3.360000000e+02  15.4% (1060; 1228)
+1376327: mip =   3.970000000e+02 >=   3.360000000e+02  15.4% (1068; 1234)
+1385714: mip =   3.970000000e+02 >=   3.360000000e+02  15.4% (1071; 1237)
+1395811: mip =   3.970000000e+02 >=   3.360000000e+02  15.4% (1076; 1243)
+1407828: mip =   3.970000000e+02 >=   3.360000000e+02  15.4% (1087; 1251)
+1420108: mip =   3.970000000e+02 >=   3.360000000e+02  15.4% (1098; 1257)
+1431450: mip =   3.970000000e+02 >=   3.360000000e+02  15.4% (1100; 1263)
Time used: 788.6 secs.  Memory used: 24.6 Mb.
+1440647: mip =   3.970000000e+02 >=   3.360000000e+02  15.4% (1120; 1269)
+1453148: mip =   3.970000000e+02 >=   3.360000000e+02  15.4% (1122; 1271)
+1462167: mip =   3.970000000e+02 >=   3.360000000e+02  15.4% (1126; 1273)
+1475862: mip =   3.970000000e+02 >=   3.360000000e+02  15.4% (1128; 1275)
+1487931: mip =   3.970000000e+02 >=   3.360000000e+02  15.4% (1129; 1278)
+1498896: mip =   3.970000000e+02 >=   3.360000000e+02  15.4% (1129; 1279)
+1511086: mip =   3.970000000e+02 >=   3.360000000e+02  15.4% (1128; 1282)
+1521726: mip =   3.970000000e+02 >=   3.360000000e+02  15.4% (1132; 1285)
+1531696: mip =   3.970000000e+02 >=   3.360000000e+02  15.4% (1130; 1287)
+1541061: mip =   3.970000000e+02 >=   3.360000000e+02  15.4% (1139; 1289)
Time used: 848.7 secs.  Memory used: 25.1 Mb.
+1549901: mip =   3.970000000e+02 >=   3.360000000e+02  15.4% (1148; 1291)
Warning: numerical instability (dual simplex, phase II)
Warning: numerical instability (dual simplex, phase II)
Warning: numerical instability (dual simplex, phase II)
Warning: numerical instability (dual simplex, phase II)
Warning: numerical instability (dual simplex, phase II)
#1571202: obj =   3.480000000e+02 inf =   0.000e+00 (1952) 148 53%
Warning: numerical instability (dual simplex, phase II)
 1577392: sum =   0.000000000e+00 inf =   0.000e+00 (0) 56 4%
Warning: numerical instability (dual simplex, phase II)
 1579091: sum =   0.000000000e+00 inf =   3.508e-19 (0) 15 2%
Warning: numerical instability (dual simplex, phase II)
 1581903: sum =   0.000000000e+00 inf =   4.762e-16 (0) 25 0%
Warning: numerical instability (dual simplex, phase II)
 1585818: sum =   0.000000000e+00 inf =   4.104e-10 (0) 36 2%
Warning: numerical instability (dual simplex, phase II)
Warning: dual simplex failed due to excessive numerical instability
+1589862: mip =   3.970000000e+02 >=   3.360000000e+02  15.4% (1157; 1292)
Warning: numerical instability (dual simplex, phase II)
Warning: numerical instability (dual simplex, phase II)
Warning: numerical instability (dual simplex, phase II)
Warning: numerical instability (dual simplex, phase II)
Warning: numerical instability (dual simplex, phase II)
Warning: numerical instability (dual simplex, phase II)
Warning: numerical instability (dual simplex, phase II)
Warning: numerical instability (dual simplex, phase II)
Warning: numerical instability (dual simplex, phase II)
Warning: numerical instability (dual simplex, phase II)
Warning: dual simplex failed due to excessive numerical instability
+1609664: mip =   3.970000000e+02 >=   3.360000000e+02  15.4% (1156; 1293)
+1621063: mip =   3.970000000e+02 >=   3.360000000e+02  15.4% (1160; 1297)
+1632041: mip =   3.970000000e+02 >=   3.360000000e+02  15.4% (1166; 1297)
+1645598: mip =   3.970000000e+02 >=   3.360000000e+02  15.4% (1172; 1302)
Time used: 909.5 secs.  Memory used: 25.3 Mb.
+1658478: mip =   3.970000000e+02 >=   3.360000000e+02  15.4% (1179; 1307)
+1667751: mip =   3.970000000e+02 >=   3.360000000e+02  15.4% (1183; 1311)
+1680963: mip =   3.970000000e+02 >=   3.360000000e+02  15.4% (1186; 1313)
+1691141: mip =   3.970000000e+02 >=   3.360000000e+02  15.4% (1190; 1315)
+1702640: mip =   3.970000000e+02 >=   3.360000000e+02  15.4% (1194; 1317)
+1714790: mip =   3.970000000e+02 >=   3.360000000e+02  15.4% (1195; 1318)
+1724903: mip =   3.970000000e+02 >=   3.360000000e+02  15.4% (1197; 1318)
+1737036: mip =   3.970000000e+02 >=   3.360000000e+02  15.4% (1204; 1321)
+1745863: mip =   3.970000000e+02 >=   3.360000000e+02  15.4% (1204; 1322)
+1755652: mip =   3.970000000e+02 >=   3.360000000e+02  15.4% (1205; 1322)
Time used: 972.2 secs.  Memory used: 25.8 Mb.
+1765706: mip =   3.970000000e+02 >=   3.360000000e+02  15.4% (1212; 1324)
+1778327: mip =   3.970000000e+02 >=   3.360000000e+02  15.4% (1220; 1326)
+1789658: mip =   3.970000000e+02 >=   3.360000000e+02  15.4% (1225; 1331)
+1799204: mip =   3.970000000e+02 >=   3.360000000e+02  15.4% (1224; 1338)
+1811188: mip =   3.970000000e+02 >=   3.360000000e+02  15.4% (1228; 1344)
+1822684: mip =   3.970000000e+02 >=   3.360000000e+02  15.4% (1238; 1350)
+1832600: mip =   3.970000000e+02 >=   3.360000000e+02  15.4% (1241; 1351)
+1844518: mip =   3.970000000e+02 >=   3.360000000e+02  15.4% (1257; 1353)
+1856069: mip =   3.970000000e+02 >=   3.360000000e+02  15.4% (1261; 1354)
+1865278: mip =   3.970000000e+02 >=   3.360000000e+02  15.4% (1264; 1355)
Time used: 1033.3 secs.  Memory used: 26.7 Mb.
+1877837: mip =   3.970000000e+02 >=   3.360000000e+02  15.4% (1268; 1358)
+1889354: mip =   3.970000000e+02 >=   3.360000000e+02  15.4% (1269; 1359)
+1901804: mip =   3.970000000e+02 >=   3.360000000e+02  15.4% (1273; 1361)
+1911117: mip =   3.970000000e+02 >=   3.360000000e+02  15.4% (1275; 1363)
+1920346: mip =   3.970000000e+02 >=   3.360000000e+02  15.4% (1278; 1364)
+1929741: mip =   3.970000000e+02 >=   3.360000000e+02  15.4% (1282; 1366)
+1940596: mip =   3.970000000e+02 >=   3.360000000e+02  15.4% (1284; 1370)
+1950423: mip =   3.970000000e+02 >=   3.360000000e+02  15.4% (1291; 1372)
+1959653: mip =   3.970000000e+02 >=   3.360000000e+02  15.4% (1293; 1372)
+1971607: mip =   3.970000000e+02 >=   3.360000000e+02  15.4% (1298; 1376)
Time used: 1093.7 secs.  Memory used: 27.5 Mb.
+1983365: mip =   3.970000000e+02 >=   3.360000000e+02  15.4% (1306; 1378)
+1993762: mip =   3.970000000e+02 >=   3.360000000e+02  15.4% (1308; 1379)
+2005595: mip =   3.970000000e+02 >=   3.360000000e+02  15.4% (1310; 1381)
+2020161: mip =   3.970000000e+02 >=   3.360000000e+02  15.4% (1312; 1390)
+2030153: mip =   3.970000000e+02 >=   3.360000000e+02  15.4% (1317; 1390)
+2042084: mip =   3.970000000e+02 >=   3.360000000e+02  15.4% (1324; 1391)
+2051929: mip =   3.970000000e+02 >=   3.360000000e+02  15.4% (1328; 1395)
+2061424: mip =   3.970000000e+02 >=   3.360000000e+02  15.4% (1331; 1395)
+2071452: mip =   3.970000000e+02 >=   3.360000000e+02  15.4% (1337; 1396)
+2082027: mip =   3.970000000e+02 >=   3.360000000e+02  15.4% (1340; 1398)
Time used: 1154.9 secs.  Memory used: 28.2 Mb.
+2091956: mip =   3.970000000e+02 >=   3.360000000e+02  15.4% (1342; 1400)
+2100908: mip =   3.970000000e+02 >=   3.360000000e+02  15.4% (1367; 1403)
+2110589: mip =   3.970000000e+02 >=   3.360000000e+02  15.4% (1376; 1405)
+2120401: mip =   3.970000000e+02 >=   3.360000000e+02  15.4% (1383; 1407)
+2131725: mip =   3.970000000e+02 >=   3.360000000e+02  15.4% (1389; 1408)
+2141596: mip =   3.970000000e+02 >=   3.360000000e+02  15.4% (1397; 1410)
+2151799: mip =   3.970000000e+02 >=   3.360000000e+02  15.4% (1399; 1411)
+2163270: mip =   3.970000000e+02 >=   3.360000000e+02  15.4% (1407; 1412)
+2173549: mip =   3.970000000e+02 >=   3.360000000e+02  15.4% (1418; 1414)
+2183365: mip =   3.970000000e+02 >=   3.360000000e+02  15.4% (1428; 1414)
+2195748: mip =   3.970000000e+02 >=   3.360000000e+02  15.4% (1433; 1415)
Time used: 1216.0 secs.  Memory used: 29.2 Mb.
+2204624: mip =   3.970000000e+02 >=   3.360000000e+02  15.4% (1434; 1417)
+2213817: mip =   3.970000000e+02 >=   3.360000000e+02  15.4% (1447; 1420)
+2229134: mip =   3.970000000e+02 >=   3.360000000e+02  15.4% (1463; 1426)
+2246584: mip =   3.970000000e+02 >=   3.360000000e+02  15.4% (1466; 1427)
+2257522: mip =   3.970000000e+02 >=   3.360000000e+02  15.4% (1469; 1429)
+2268399: mip =   3.970000000e+02 >=   3.360000000e+02  15.4% (1476; 1438)
+2278069: mip =   3.970000000e+02 >=   3.360000000e+02  15.4% (1481; 1444)
+2289667: mip =   3.970000000e+02 >=   3.360000000e+02  15.4% (1483; 1445)
+2298948: mip =   3.970000000e+02 >=   3.360000000e+02  15.4% (1488; 1449)
Time used: 1276.1 secs.  Memory used: 30.3 Mb.
+2308973: mip =   3.970000000e+02 >=   3.360000000e+02  15.4% (1512; 1454)
+2320428: mip =   3.970000000e+02 >=   3.360000000e+02  15.4% (1522; 1457)
+2334559: mip =   3.970000000e+02 >=   3.360000000e+02  15.4% (1581; 1461)
+2347304: mip =   3.970000000e+02 >=   3.360000000e+02  15.4% (1586; 1466)
+2357300: mip =   3.970000000e+02 >=   3.360000000e+02  15.4% (1589; 1466)
+2368758: mip =   3.970000000e+02 >=   3.360000000e+02  15.4% (1599; 1475)
+2379326: mip =   3.970000000e+02 >=   3.360000000e+02  15.4% (1604; 1480)
+2390689: mip =   3.970000000e+02 >=   3.360000000e+02  15.4% (1625; 1482)
+2401249: mip =   3.970000000e+02 >=   3.360000000e+02  15.4% (1632; 1489)
+2410715: mip =   3.970000000e+02 >=   3.360000000e+02  15.4% (1642; 1491)
Time used: 1336.8 secs.  Memory used: 32.0 Mb.
+2424961: mip =   3.970000000e+02 >=   3.360000000e+02  15.4% (1662; 1495)
+2437722: mip =   3.970000000e+02 >=   3.360000000e+02  15.4% (1666; 1500)
+2447596: mip =   3.970000000e+02 >=   3.360000000e+02  15.4% (1670; 1504)
+2458115: mip =   3.970000000e+02 >=   3.360000000e+02  15.4% (1672; 1513)
+2474787: mip =   3.970000000e+02 >=   3.360000000e+02  15.4% (1678; 1515)
+2486133: mip =   3.970000000e+02 >=   3.360000000e+02  15.4% (1700; 1520)
+2497266: mip =   3.970000000e+02 >=   3.360000000e+02  15.4% (1718; 1524)
+2509026: mip =   3.970000000e+02 >=   3.360000000e+02  15.4% (1758; 1527)
+2520998: mip =   3.970000000e+02 >=   3.360000000e+02  15.4% (1761; 1530)
Time used: 1397.0 secs.  Memory used: 33.4 Mb.
+2530691: mip =   3.970000000e+02 >=   3.360000000e+02  15.4% (1773; 1535)
+2544362: mip =   3.970000000e+02 >=   3.360000000e+02  15.4% (1784; 1537)
+2554084: mip =   3.970000000e+02 >=   3.360000000e+02  15.4% (1783; 1542)
+2566573: mip =   3.970000000e+02 >=   3.360000000e+02  15.4% (1792; 1543)
+2578280: mip =   3.970000000e+02 >=   3.360000000e+02  15.4% (1802; 1545)
+2592636: mip =   3.970000000e+02 >=   3.360000000e+02  15.4% (1809; 1546)
+2605320: mip =   3.970000000e+02 >=   3.360000000e+02  15.4% (1819; 1547)
+2616319: mip =   3.970000000e+02 >=   3.360000000e+02  15.4% (1826; 1549)
+2625836: mip =   3.970000000e+02 >=   3.360000000e+02  15.4% (1836; 1550)
+2639864: mip =   3.970000000e+02 >=   3.360000000e+02  15.4% (1842; 1553)
Time used: 1458.1 secs.  Memory used: 34.5 Mb.
+2652020: mip =   3.970000000e+02 >=   3.360000000e+02  15.4% (1860; 1558)
+2665852: mip =   3.970000000e+02 >=   3.360000000e+02  15.4% (1863; 1561)
+2677322: mip =   3.970000000e+02 >=   3.360000000e+02  15.4% (1870; 1565)
+2690614: mip =   3.970000000e+02 >=   3.360000000e+02  15.4% (1872; 1567)
+2699844: mip =   3.970000000e+02 >=   3.360000000e+02  15.4% (1875; 1570)
+2710733: mip =   3.970000000e+02 >=   3.360000000e+02  15.4% (1888; 1573)
+2720898: mip =   3.970000000e+02 >=   3.360000000e+02  15.4% (1895; 1574)
+2731749: mip =   3.970000000e+02 >=   3.360000000e+02  15.4% (1904; 1575)
+2749078: mip =   3.970000000e+02 >=   3.360000000e+02  15.4% (1910; 1577)
Time used: 1519.5 secs.  Memory used: 35.3 Mb.
+2760550: mip =   3.970000000e+02 >=   3.360000000e+02  15.4% (1916; 1579)
+2771035: mip =   3.970000000e+02 >=   3.360000000e+02  15.4% (1930; 1581)
+2781665: mip =   3.970000000e+02 >=   3.360000000e+02  15.4% (1932; 1582)
+2792070: mip =   3.970000000e+02 >=   3.360000000e+02  15.4% (1932; 1584)
+2801218: mip =   3.970000000e+02 >=   3.360000000e+02  15.4% (1937; 1585)
+2814730: mip =   3.970000000e+02 >=   3.360000000e+02  15.4% (1943; 1588)
+2825176: mip =   3.970000000e+02 >=   3.360000000e+02  15.4% (1946; 1590)
+2835791: mip =   3.970000000e+02 >=   3.360000000e+02  15.4% (1953; 1591)
+2845569: mip =   3.970000000e+02 >=   3.360000000e+02  15.4% (1954; 1594)
+2863735: mip =   3.970000000e+02 >=   3.360000000e+02  15.4% (1966; 1595)
Time used: 1581.0 secs.  Memory used: 36.3 Mb.
+2873057: mip =   3.970000000e+02 >=   3.360000000e+02  15.4% (1981; 1597)
+2883504: mip =   3.970000000e+02 >=   3.360000000e+02  15.4% (1995; 1598)
+2895410: mip =   3.970000000e+02 >=   3.360000000e+02  15.4% (1999; 1607)
+2906581: mip =   3.970000000e+02 >=   3.360000000e+02  15.4% (2008; 1613)
+2916172: mip =   3.970000000e+02 >=   3.360000000e+02  15.4% (2011; 1614)
+2925854: mip =   3.970000000e+02 >=   3.360000000e+02  15.4% (2014; 1615)
+2938995: mip =   3.970000000e+02 >=   3.360000000e+02  15.4% (2020; 1618)
+2951672: mip =   3.970000000e+02 >=   3.360000000e+02  15.4% (2028; 1621)
+2966282: mip =   3.970000000e+02 >=   3.360000000e+02  15.4% (2032; 1623)
+2977062: mip =   3.970000000e+02 >=   3.360000000e+02  15.4% (2034; 1630)
+2987232: mip =   3.970000000e+02 >=   3.360000000e+02  15.4% (2040; 1632)
Time used: 1642.1 secs.  Memory used: 37.3 Mb.
+2997246: mip =   3.970000000e+02 >=   3.360000000e+02  15.4% (2041; 1634)
+3011294: mip =   3.970000000e+02 >=   3.360000000e+02  15.4% (2044; 1635)
+3021255: mip =   3.970000000e+02 >=   3.360000000e+02  15.4% (2054; 1637)
+3037780: mip =   3.970000000e+02 >=   3.360000000e+02  15.4% (2056; 1641)
+3050014: mip =   3.970000000e+02 >=   3.360000000e+02  15.4% (2058; 1641)
+3062211: mip =   3.970000000e+02 >=   3.360000000e+02  15.4% (2062; 1642)
+3074178: mip =   3.970000000e+02 >=   3.360000000e+02  15.4% (2074; 1642)
+3084582: mip =   3.970000000e+02 >=   3.360000000e+02  15.4% (2083; 1643)
+3096188: mip =   3.970000000e+02 >=   3.360000000e+02  15.4% (2092; 1646)
Time used: 1702.1 secs.  Memory used: 38.0 Mb.
+3106759: mip =   3.970000000e+02 >=   3.360000000e+02  15.4% (2097; 1649)
+3119436: mip =   3.970000000e+02 >=   3.360000000e+02  15.4% (2104; 1652)
+3131244: mip =   3.970000000e+02 >=   3.360000000e+02  15.4% (2106; 1654)
+3143092: mip =   3.970000000e+02 >=   3.360000000e+02  15.4% (2115; 1657)
+3152911: mip =   3.970000000e+02 >=   3.360000000e+02  15.4% (2118; 1659)
+3163513: mip =   3.970000000e+02 >=   3.360000000e+02  15.4% (2122; 1659)
+3173304: mip =   3.970000000e+02 >=   3.360000000e+02  15.4% (2145; 1664)
+3185081: mip =   3.970000000e+02 >=   3.360000000e+02  15.4% (2148; 1667)
+3194618: mip =   3.970000000e+02 >=   3.360000000e+02  15.4% (2151; 1671)
+3205409: mip =   3.970000000e+02 >=   3.360000000e+02  15.4% (2154; 1671)
Time used: 1762.5 secs.  Memory used: 38.9 Mb.
+3215166: mip =   3.970000000e+02 >=   3.360000000e+02  15.4% (2163; 1673)
+3226486: mip =   3.970000000e+02 >=   3.360000000e+02  15.4% (2169; 1674)
+3236261: mip =   3.970000000e+02 >=   3.360000000e+02  15.4% (2172; 1677)
+3247717: mip =   3.970000000e+02 >=   3.360000000e+02  15.4% (2174; 1680)
+3257913: mip =   3.970000000e+02 >=   3.360000000e+02  15.4% (2187; 1682)
+3272692: mip =   3.970000000e+02 >=   3.360000000e+02  15.4% (2203; 1688)
